NAME : n150w140.004.898.tour
COMMENT : Length = 898
COMMENT : Found by LKH [Keld Helsgaun] Tue Nov  7 19:48:07 2017
TYPE : TOUR
DIMENSION : 151
TOUR_SECTION
1
38
20
142
143
50
48
87
73
36
39
57
61
108
77
46
133
84
94
128
9
85
66
150
68
109
101
146
140
131
72
134
119
115
116
86
42
15
129
54
11
53
56
92
91
126
49
79
47
78
12
25
96
71
26
75
27
98
127
30
113
102
97
4
122
44
10
125
55
59
28
107
31
114
120
64
74
62
58
93
149
136
32
29
103
139
60
112
148
14
105
124
45
6
8
40
130
123
65
80
2
111
51
118
104
7
76
21
89
121
22
17
88
13
41
82
34
70
144
106
52
137
19
67
117
23
63
110
16
18
43
33
95
81
5
138
37
141
83
24
69
147
132
151
35
135
100
90
3
99
145
-1
EOF
